p tw 22 42
0 1
0 2
0 3
0 4
0 5
0 6
0 7
0 8
0 9
0 10
0 11
0 12
0 13
0 14
0 15
0 16
0 17
0 18
0 19
0 20
0 21
1 2
1 3
2 3
4 5
4 6
5 6
7 8
7 9
8 9
10 11
10 12
11 12
13 14
13 15
14 15
16 17
16 18
17 18
19 20
19 21
20 21
